!pbe0 cc-pvdz
%pal nprocs 1 end
* xyz 0 1
